p cnf 1817
-24 -570
-25 -573
-26 -576
-27 -579
-28 -582
-29 -585
-30 -588
-31 -591
-32 -594
-33 -597
-34 -600
-35 -603
-36 -606
-37 -609
-38 -612
-39 -615
-40 -618
-41 -621
-42 -624
-43 -627
-44 -630
-45 -633
-46 -636
-47 637
-48 638
-49 639
-50 640
-51 641
-52 642
-53 643
-54 644
-55 645
-56 646
-57 647
-58 648
-59 649
-60 650
-61 651
-62 652
-63 653
-64 -25
-64 -26
25 26 64
-65 -27
-65 -28
27 28 65
-66 -29
-66 -30
29 30 66
-67 -31
-67 -32
31 32 67
-68 -33
-68 -34
33 34 68
-69 -35
-69 -36
35 36 69
-70 -37
-70 -38
37 38 70
-71 -39
-71 -40
39 40 71
-72 -41
-72 -42
41 42 72
-73 -43
-73 -44
43 44 73
-74 -45
-74 -46
45 46 74
-75 -47
-75 -48
47 48 75
-76 -49
-76 -50
49 50 76
-77 -51
-77 -52
51 52 77
-78 -53
-78 -54
53 54 78
-79 -55
-79 -56
55 56 79
-80 -57
-80 -58
57 58 80
-81 -59
-81 -60
59 60 81
-82 -61
-82 -62
61 62 82
-83 64
-83 65
-64 -65 83
-84 66
-84 67
-66 -67 84
-85 68
-85 69
-68 -69 85
-86 70
-86 71
-70 -71 86
-87 72
-87 73
-72 -73 87
-88 74
-88 75
-74 -75 88
-89 76
-89 77
-76 -77 89
-90 78
-90 79
-78 -79 90
-91 80
-91 81
-80 -81 91
-92 -63
-92 82
63 -82 92
-93 83
-93 84
-83 -84 93
-94 85
-94 86
-85 -86 94
-95 87
-95 88
-87 -88 95
-96 89
-96 90
-89 -90 96
-97 91
-97 92
-91 -92 97
-98 93
-98 94
-93 -94 98
-99 95
-99 96
-95 -96 99
-100 98
-100 99
-98 -99 100
-101 97
-101 100
-97 -100 101
-102 -24
-102 25
24 -25 102
-103 24
-103 -25
-24 25 103
-104 -102
-104 -103
102 103 104
-105 24
-105 25
-24 -25 105
-106 -24
-106 -104
24 104 106
-107 24
-107 104
-24 -104 107
-108 -106
-108 -107
106 107 108
-109 24
-109 -104
-24 104 109
-110 -105
-110 -109
105 109 110
-111 -25
-111 26
25 -26 111
-112 25
-112 -26
-25 26 112
-113 -111
-113 -112
111 112 113
-114 25
-114 26
-25 -26 114
-115 110
-115 -113
-110 113 115
-116 -110
-116 113
110 -113 116
-117 -115
-117 -116
115 116 117
-118 -110
-118 -113
110 113 118
-119 -114
-119 -118
114 118 119
-120 -26
-120 27
26 -27 120
-121 26
-121 -27
-26 27 121
-122 -120
-122 -121
120 121 122
-123 26
-123 27
-26 -27 123
-124 119
-124 -122
-119 122 124
-125 -119
-125 122
119 -122 125
-126 -124
-126 -125
124 125 126
-127 -119
-127 -122
119 122 127
-128 -123
-128 -127
123 127 128
-129 -27
-129 28
27 -28 129
-130 27
-130 -28
-27 28 130
-131 -129
-131 -130
129 130 131
-132 27
-132 28
-27 -28 132
-133 128
-133 -131
-128 131 133
-134 -128
-134 131
128 -131 134
-135 -133
-135 -134
133 134 135
-136 -128
-136 -131
128 131 136
-137 -132
-137 -136
132 136 137
-138 -28
-138 29
28 -29 138
-139 28
-139 -29
-28 29 139
-140 -138
-140 -139
138 139 140
-141 28
-141 29
-28 -29 141
-142 137
-142 -140
-137 140 142
-143 -137
-143 140
137 -140 143
-144 -142
-144 -143
142 143 144
-145 -137
-145 -140
137 140 145
-146 -141
-146 -145
141 145 146
-147 -29
-147 30
29 -30 147
-148 29
-148 -30
-29 30 148
-149 -147
-149 -148
147 148 149
-150 29
-150 30
-29 -30 150
-151 146
-151 -149
-146 149 151
-152 -146
-152 149
146 -149 152
-153 -151
-153 -152
151 152 153
-154 -146
-154 -149
146 149 154
-155 -150
-155 -154
150 154 155
-156 -30
-156 31
30 -31 156
-157 30
-157 -31
-30 31 157
-158 -156
-158 -157
156 157 158
-159 30
-159 31
-30 -31 159
-160 155
-160 -158
-155 158 160
-161 -155
-161 158
155 -158 161
-162 -160
-162 -161
160 161 162
-163 -155
-163 -158
155 158 163
-164 -159
-164 -163
159 163 164
-165 -31
-165 32
31 -32 165
-166 31
-166 -32
-31 32 166
-167 -165
-167 -166
165 166 167
-168 31
-168 32
-31 -32 168
-169 164
-169 -167
-164 167 169
-170 -164
-170 167
164 -167 170
-171 -169
-171 -170
169 170 171
-172 -164
-172 -167
164 167 172
-173 -168
-173 -172
168 172 173
-174 -32
-174 33
32 -33 174
-175 32
-175 -33
-32 33 175
-176 -174
-176 -175
174 175 176
-177 32
-177 33
-32 -33 177
-178 173
-178 -176
-173 176 178
-179 -173
-179 176
173 -176 179
-180 -178
-180 -179
178 179 180
-181 -173
-181 -176
173 176 181
-182 -177
-182 -181
177 181 182
-183 -33
-183 34
33 -34 183
-184 33
-184 -34
-33 34 184
-185 -183
-185 -184
183 184 185
-186 33
-186 34
-33 -34 186
-187 182
-187 -185
-182 185 187
-188 -182
-188 185
182 -185 188
-189 -187
-189 -188
187 188 189
-190 -182
-190 -185
182 185 190
-191 -186
-191 -190
186 190 191
-192 -34
-192 35
34 -35 192
-193 34
-193 -35
-34 35 193
-194 -192
-194 -193
192 193 194
-195 34
-195 35
-34 -35 195
-196 191
-196 -194
-191 194 196
-197 -191
-197 194
191 -194 197
-198 -196
-198 -197
196 197 198
-199 -191
-199 -194
191 194 199
-200 -195
-200 -199
195 199 200
-201 -35
-201 36
35 -36 201
-202 35
-202 -36
-35 36 202
-203 -201
-203 -202
201 202 203
-204 35
-204 36
-35 -36 204
-205 200
-205 -203
-200 203 205
-206 -200
-206 203
200 -203 206
-207 -205
-207 -206
205 206 207
-208 -200
-208 -203
200 203 208
-209 -204
-209 -208
204 208 209
-210 -36
-210 37
36 -37 210
-211 36
-211 -37
-36 37 211
-212 -210
-212 -211
210 211 212
-213 36
-213 37
-36 -37 213
-214 209
-214 -212
-209 212 214
-215 -209
-215 212
209 -212 215
-216 -214
-216 -215
214 215 216
-217 -209
-217 -212
209 212 217
-218 -213
-218 -217
213 217 218
-219 -37
-219 38
37 -38 219
-220 37
-220 -38
-37 38 220
-221 -219
-221 -220
219 220 221
-222 37
-222 38
-37 -38 222
-223 218
-223 -221
-218 221 223
-224 -218
-224 221
218 -221 224
-225 -223
-225 -224
223 224 225
-226 -218
-226 -221
218 221 226
-227 -222
-227 -226
222 226 227
-228 -38
-228 39
38 -39 228
-229 38
-229 -39
-38 39 229
-230 -228
-230 -229
228 229 230
-231 38
-231 39
-38 -39 231
-232 227
-232 -230
-227 230 232
-233 -227
-233 230
227 -230 233
-234 -232
-234 -233
232 233 234
-235 -227
-235 -230
227 230 235
-236 -231
-236 -235
231 235 236
-237 -39
-237 40
39 -40 237
-238 39
-238 -40
-39 40 238
-239 -237
-239 -238
237 238 239
-240 39
-240 40
-39 -40 240
-241 236
-241 -239
-236 239 241
-242 -236
-242 239
236 -239 242
-243 -241
-243 -242
241 242 243
-244 -236
-244 -239
236 239 244
-245 -240
-245 -244
240 244 245
-246 -40
-246 41
40 -41 246
-247 40
-247 -41
-40 41 247
-248 -246
-248 -247
246 247 248
-249 40
-249 41
-40 -41 249
-250 245
-250 -248
-245 248 250
-251 -245
-251 248
245 -248 251
-252 -250
-252 -251
250 251 252
-253 -245
-253 -248
245 248 253
-254 -249
-254 -253
249 253 254
-255 -41
-255 42
41 -42 255
-256 41
-256 -42
-41 42 256
-257 -255
-257 -256
255 256 257
-258 41
-258 42
-41 -42 258
-259 254
-259 -257
-254 257 259
-260 -254
-260 257
254 -257 260
-261 -259
-261 -260
259 260 261
-262 -254
-262 -257
254 257 262
-263 -258
-263 -262
258 262 263
-264 -42
-264 43
42 -43 264
-265 42
-265 -43
-42 43 265
-266 -264
-266 -265
264 265 266
-267 42
-267 43
-42 -43 267
-268 263
-268 -266
-263 266 268
-269 -263
-269 266
263 -266 269
-270 -268
-270 -269
268 269 270
-271 -263
-271 -266
263 266 271
-272 -267
-272 -271
267 271 272
-273 -43
-273 44
43 -44 273
-274 43
-274 -44
-43 44 274
-275 -273
-275 -274
273 274 275
-276 43
-276 44
-43 -44 276
-277 272
-277 -275
-272 275 277
-278 -272
-278 275
272 -275 278
-279 -277
-279 -278
277 278 279
-280 -272
-280 -275
272 275 280
-281 -276
-281 -280
276 280 281
-282 -44
-282 45
44 -45 282
-283 44
-283 -45
-44 45 283
-284 -282
-284 -283
282 283 284
-285 44
-285 45
-44 -45 285
-286 281
-286 -284
-281 284 286
-287 -281
-287 284
281 -284 287
-288 -286
-288 -287
286 287 288
-289 -281
-289 -284
281 284 289
-290 -285
-290 -289
285 289 290
-291 -45
-291 46
45 -46 291
-292 45
-292 -46
-45 46 292
-293 -291
-293 -292
291 292 293
-294 45
-294 46
-45 -46 294
-295 290
-295 -293
-290 293 295
-296 -290
-296 293
290 -293 296
-297 -295
-297 -296
295 296 297
-298 -290
-298 -293
290 293 298
-299 -294
-299 -298
294 298 299
-300 -46
-300 47
46 -47 300
-301 46
-301 -47
-46 47 301
-302 -300
-302 -301
300 301 302
-303 46
-303 47
-46 -47 303
-304 299
-304 -302
-299 302 304
-305 -299
-305 302
299 -302 305
-306 -304
-306 -305
304 305 306
-307 -299
-307 -302
299 302 307
-308 -303
-308 -307
303 307 308
-309 -47
-309 48
47 -48 309
-310 47
-310 -48
-47 48 310
-311 -309
-311 -310
309 310 311
-312 47
-312 48
-47 -48 312
-313 308
-313 -311
-308 311 313
-314 -308
-314 311
308 -311 314
-315 -313
-315 -314
313 314 315
-316 -308
-316 -311
308 311 316
-317 -312
-317 -316
312 316 317
-318 -48
-318 49
48 -49 318
-319 48
-319 -49
-48 49 319
-320 -318
-320 -319
318 319 320
-321 48
-321 49
-48 -49 321
-322 317
-322 -320
-317 320 322
-323 -317
-323 320
317 -320 323
-324 -322
-324 -323
322 323 324
-325 -317
-325 -320
317 320 325
-326 -321
-326 -325
321 325 326
-327 -49
-327 50
49 -50 327
-328 49
-328 -50
-49 50 328
-329 -327
-329 -328
327 328 329
-330 49
-330 50
-49 -50 330
-331 326
-331 -329
-326 329 331
-332 -326
-332 329
326 -329 332
-333 -331
-333 -332
331 332 333
-334 -326
-334 -329
326 329 334
-335 -330
-335 -334
330 334 335
-336 -50
-336 51
50 -51 336
-337 50
-337 -51
-50 51 337
-338 -336
-338 -337
336 337 338
-339 50
-339 51
-50 -51 339
-340 335
-340 -338
-335 338 340
-341 -335
-341 338
335 -338 341
-342 -340
-342 -341
340 341 342
-343 -335
-343 -338
335 338 343
-344 -339
-344 -343
339 343 344
-345 -51
-345 52
51 -52 345
-346 51
-346 -52
-51 52 346
-347 -345
-347 -346
345 346 347
-348 51
-348 52
-51 -52 348
-349 344
-349 -347
-344 347 349
-350 -344
-350 347
344 -347 350
-351 -349
-351 -350
349 350 351
-352 -344
-352 -347
344 347 352
-353 -348
-353 -352
348 352 353
-354 -52
-354 53
52 -53 354
-355 52
-355 -53
-52 53 355
-356 -354
-356 -355
354 355 356
-357 52
-357 53
-52 -53 357
-358 353
-358 -356
-353 356 358
-359 -353
-359 356
353 -356 359
-360 -358
-360 -359
358 359 360
-361 -353
-361 -356
353 356 361
-362 -357
-362 -361
357 361 362
-363 -53
-363 54
53 -54 363
-364 53
-364 -54
-53 54 364
-365 -363
-365 -364
363 364 365
-366 53
-366 54
-53 -54 366
-367 362
-367 -365
-362 365 367
-368 -362
-368 365
362 -365 368
-369 -367
-369 -368
367 368 369
-370 -362
-370 -365
362 365 370
-371 -366
-371 -370
366 370 371
-372 -54
-372 55
54 -55 372
-373 54
-373 -55
-54 55 373
-374 -372
-374 -373
372 373 374
-375 54
-375 55
-54 -55 375
-376 371
-376 -374
-371 374 376
-377 -371
-377 374
371 -374 377
-378 -376
-378 -377
376 377 378
-379 -371
-379 -374
371 374 379
-380 -375
-380 -379
375 379 380
-381 -55
-381 56
55 -56 381
-382 55
-382 -56
-55 56 382
-383 -381
-383 -382
381 382 383
-384 55
-384 56
-55 -56 384
-385 380
-385 -383
-380 383 385
-386 -380
-386 383
380 -383 386
-387 -385
-387 -386
385 386 387
-388 -380
-388 -383
380 383 388
-389 -384
-389 -388
384 388 389
-390 -56
-390 57
56 -57 390
-391 56
-391 -57
-56 57 391
-392 -390
-392 -391
390 391 392
-393 56
-393 57
-56 -57 393
-394 389
-394 -392
-389 392 394
-395 -389
-395 392
389 -392 395
-396 -394
-396 -395
394 395 396
-397 -389
-397 -392
389 392 397
-398 -393
-398 -397
393 397 398
-399 -57
-399 58
57 -58 399
-400 57
-400 -58
-57 58 400
-401 -399
-401 -400
399 400 401
-402 57
-402 58
-57 -58 402
-403 398
-403 -401
-398 401 403
-404 -398
-404 401
398 -401 404
-405 -403
-405 -404
403 404 405
-406 -398
-406 -401
398 401 406
-407 -402
-407 -406
402 406 407
-408 -58
-408 59
58 -59 408
-409 58
-409 -59
-58 59 409
-410 -408
-410 -409
408 409 410
-411 58
-411 59
-58 -59 411
-412 407
-412 -410
-407 410 412
-413 -407
-413 410
407 -410 413
-414 -412
-414 -413
412 413 414
-415 -407
-415 -410
407 410 415
-416 -411
-416 -415
411 415 416
-417 -59
-417 60
59 -60 417
-418 59
-418 -60
-59 60 418
-419 -417
-419 -418
417 418 419
-420 59
-420 60
-59 -60 420
-421 416
-421 -419
-416 419 421
-422 -416
-422 419
416 -419 422
-423 -421
-423 -422
421 422 423
-424 -416
-424 -419
416 419 424
-425 -420
-425 -424
420 424 425
-426 -60
-426 61
60 -61 426
-427 60
-427 -61
-60 61 427
-428 -426
-428 -427
426 427 428
-429 60
-429 61
-60 -61 429
-430 425
-430 -428
-425 428 430
-431 -425
-431 428
425 -428 431
-432 -430
-432 -431
430 431 432
-433 -425
-433 -428
425 428 433
-434 -429
-434 -433
429 433 434
-435 -61
-435 62
61 -62 435
-436 61
-436 -62
-61 62 436
-437 -435
-437 -436
435 436 437
-438 61
-438 62
-61 -62 438
-439 434
-439 -437
-434 437 439
-440 -434
-440 437
434 -437 440
-441 -439
-441 -440
439 440 441
-442 -434
-442 -437
434 437 442
-443 -438
-443 -442
438 442 443
-444 -62
-444 63
62 -63 444
-445 62
-445 -63
-62 63 445
-446 -444
-446 -445
444 445 446
-447 62
-447 63
-62 -63 447
-448 443
-448 -446
-443 446 448
-449 -443
-449 446
443 -446 449
-450 -448
-450 -449
448 449 450
-451 -443
-451 -446
443 446 451
-452 -447
-452 -451
447 451 452
-453 24
-453 -108
-24 108 453
-454 -24
-454 26
24 -26 454
-455 -453
-455 -454
453 454 455
-456 24
-456 -117
-24 117 456
-457 -24
-457 27
24 -27 457
-458 -456
-458 -457
456 457 458
-459 24
-459 -126
-24 126 459
-460 -24
-460 28
24 -28 460
-461 -459
-461 -460
459 460 461
-462 24
-462 -135
-24 135 462
-463 -24
-463 29
24 -29 463
-464 -462
-464 -463
462 463 464
-465 24
-465 -144
-24 144 465
-466 -24
-466 30
24 -30 466
-467 -465
-467 -466
465 466 467
-468 24
-468 -153
-24 153 468
-469 -24
-469 31
24 -31 469
-470 -468
-470 -469
468 469 470
-471 24
-471 -162
-24 162 471
-472 -24
-472 32
24 -32 472
-473 -471
-473 -472
471 472 473
-474 24
-474 -171
-24 171 474
-475 -24
-475 33
24 -33 475
-476 -474
-476 -475
474 475 476
-477 24
-477 -180
-24 180 477
-478 -24
-478 34
24 -34 478
-479 -477
-479 -478
477 478 479
-480 24
-480 -189
-24 189 480
-481 -24
-481 35
24 -35 481
-482 -480
-482 -481
480 481 482
-483 24
-483 -198
-24 198 483
-484 -24
-484 36
24 -36 484
-485 -483
-485 -484
483 484 485
-486 24
-486 -207
-24 207 486
-487 -24
-487 37
24 -37 487
-488 -486
-488 -487
486 487 488
-489 24
-489 -216
-24 216 489
-490 -24
-490 38
24 -38 490
-491 -489
-491 -490
489 490 491
-492 24
-492 -225
-24 225 492
-493 -24
-493 39
24 -39 493
-494 -492
-494 -493
492 493 494
-495 24
-495 -234
-24 234 495
-496 -24
-496 40
24 -40 496
-497 -495
-497 -496
495 496 497
-498 24
-498 -243
-24 243 498
-499 -24
-499 41
24 -41 499
-500 -498
-500 -499
498 499 500
-501 24
-501 -252
-24 252 501
-502 -24
-502 42
24 -42 502
-503 -501
-503 -502
501 502 503
-504 24
-504 -261
-24 261 504
-505 -24
-505 43
24 -43 505
-506 -504
-506 -505
504 505 506
-507 24
-507 -270
-24 270 507
-508 -24
-508 44
24 -44 508
-509 -507
-509 -508
507 508 509
-510 24
-510 -279
-24 279 510
-511 -24
-511 45
24 -45 511
-512 -510
-512 -511
510 511 512
-513 24
-513 -288
-24 288 513
-514 -24
-514 46
24 -46 514
-515 -513
-515 -514
513 514 515
-516 24
-516 -297
-24 297 516
-517 -24
-517 47
24 -47 517
-518 -516
-518 -517
516 517 518
-519 24
-519 -306
-24 306 519
-520 -24
-520 48
24 -48 520
-521 -519
-521 -520
519 520 521
-522 24
-522 -315
-24 315 522
-523 -24
-523 49
24 -49 523
-524 -522
-524 -523
522 523 524
-525 24
-525 -324
-24 324 525
-526 -24
-526 50
24 -50 526
-527 -525
-527 -526
525 526 527
-528 24
-528 -333
-24 333 528
-529 -24
-529 51
24 -51 529
-530 -528
-530 -529
528 529 530
-531 24
-531 -342
-24 342 531
-532 -24
-532 52
24 -52 532
-533 -531
-533 -532
531 532 533
-534 24
-534 -351
-24 351 534
-535 -24
-535 53
24 -53 535
-536 -534
-536 -535
534 535 536
-537 24
-537 -360
-24 360 537
-538 -24
-538 54
24 -54 538
-539 -537
-539 -538
537 538 539
-540 24
-540 -369
-24 369 540
-541 -24
-541 55
24 -55 541
-542 -540
-542 -541
540 541 542
-543 24
-543 -378
-24 378 543
-544 -24
-544 56
24 -56 544
-545 -543
-545 -544
543 544 545
-546 24
-546 -387
-24 387 546
-547 -24
-547 57
24 -57 547
-548 -546
-548 -547
546 547 548
-549 24
-549 -396
-24 396 549
-550 -24
-550 58
24 -58 550
-551 -549
-551 -550
549 550 551
-552 24
-552 -405
-24 405 552
-553 -24
-553 59
24 -59 553
-554 -552
-554 -553
552 553 554
-555 24
-555 -414
-24 414 555
-556 -24
-556 60
24 -60 556
-557 -555
-557 -556
555 556 557
-558 24
-558 -423
-24 423 558
-559 -24
-559 61
24 -61 559
-560 -558
-560 -559
558 559 560
-561 24
-561 -432
-24 432 561
-562 -24
-562 62
24 -62 562
-563 -561
-563 -562
561 562 563
-564 24
-564 -441
-24 441 564
-565 -24
-565 63
24 -63 565
-566 -564
-566 -565
564 565 566
-567 24
-567 -450
-24 450 567
-568 1
-568 101
-1 -101 568
-569 -101
-569 102
101 -102 569
-570 -568
-570 -569
568 569 570
-571 2
-571 101
-2 -101 571
-572 -101
-572 -455
101 455 572
-573 -571
-573 -572
571 572 573
-574 3
-574 101
-3 -101 574
-575 -101
-575 -458
101 458 575
-576 -574
-576 -575
574 575 576
-577 4
-577 101
-4 -101 577
-578 -101
-578 -461
101 461 578
-579 -577
-579 -578
577 578 579
-580 5
-580 101
-5 -101 580
-581 -101
-581 -464
101 464 581
-582 -580
-582 -581
580 581 582
-583 6
-583 101
-6 -101 583
-584 -101
-584 -467
101 467 584
-585 -583
-585 -584
583 584 585
-586 7
-586 101
-7 -101 586
-587 -101
-587 -470
101 470 587
-588 -586
-588 -587
586 587 588
-589 8
-589 101
-8 -101 589
-590 -101
-590 -473
101 473 590
-591 -589
-591 -590
589 590 591
-592 9
-592 101
-9 -101 592
-593 -101
-593 -476
101 476 593
-594 -592
-594 -593
592 593 594
-595 10
-595 101
-10 -101 595
-596 -101
-596 -479
101 479 596
-597 -595
-597 -596
595 596 597
-598 11
-598 101
-11 -101 598
-599 -101
-599 -482
101 482 599
-600 -598
-600 -599
598 599 600
-601 12
-601 101
-12 -101 601
-602 -101
-602 -485
101 485 602
-603 -601
-603 -602
601 602 603
-604 13
-604 101
-13 -101 604
-605 -101
-605 -488
101 488 605
-606 -604
-606 -605
604 605 606
-607 14
-607 101
-14 -101 607
-608 -101
-608 -491
101 491 608
-609 -607
-609 -608
607 608 609
-610 15
-610 101
-15 -101 610
-611 -101
-611 -494
101 494 611
-612 -610
-612 -611
610 611 612
-613 16
-613 101
-16 -101 613
-614 -101
-614 -497
101 497 614
-615 -613
-615 -614
613 614 615
-616 17
-616 101
-17 -101 616
-617 -101
-617 -500
101 500 617
-618 -616
-618 -617
616 617 618
-619 18
-619 101
-18 -101 619
-620 -101
-620 -503
101 503 620
-621 -619
-621 -620
619 620 621
-622 19
-622 101
-19 -101 622
-623 -101
-623 -506
101 506 623
-624 -622
-624 -623
622 623 624
-625 20
-625 101
-20 -101 625
-626 -101
-626 -509
101 509 626
-627 -625
-627 -626
625 626 627
-628 21
-628 101
-21 -101 628
-629 -101
-629 -512
101 512 629
-630 -628
-630 -629
628 629 630
-631 22
-631 101
-22 -101 631
-632 -101
-632 -515
101 515 632
-633 -631
-633 -632
631 632 633
-634 23
-634 101
-23 -101 634
-635 -101
-635 -518
101 518 635
-636 -634
-636 -635
634 635 636
-637 -101
-637 -521
101 521 637
-638 -101
-638 -524
101 524 638
-639 -101
-639 -527
101 527 639
-640 -101
-640 -530
101 530 640
-641 -101
-641 -533
101 533 641
-642 -101
-642 -536
101 536 642
-643 -101
-643 -539
101 539 643
-644 -101
-644 -542
101 542 644
-645 -101
-645 -545
101 545 645
-646 -101
-646 -548
101 548 646
-647 -101
-647 -551
101 551 647
-648 -101
-648 -554
101 554 648
-649 -101
-649 -557
101 557 649
-650 -101
-650 -560
101 560 650
-651 -101
-651 -563
101 563 651
-652 -101
-652 -566
101 566 652
-653 -101
-653 567
101 -567 653
-654 -63
-654 452
63 -452 654
-655 24
-655 -654
-24 654 655
655
